1 9
2 6
3 0
4 9
5 0
6 2
7 5
8 1
9 2
10 0
11 9
12 0
13 0
14 1
15 0
16 0
17 6
18 9
19 0
20 3
21 6
22 9
23 0
24 5
25 5
26 2
27 0
28 7
29 6
30 9
31 3
32 3
33 8
34 4
35 0
36 0
37 5
38 7
39 9
40 2
41 7
42 0
43 5
44 3
45 3
46 0
47 1
48 8
49 3
50 6
51 7
52 9
53 3
54 0
55 5
56 2
57 5
58 5
59 3
60 9
61 1
62 7
63 0
64 5
65 3
66 5
67 4
68 7
69 8
70 5
71 7
72 3
73 0
74 7
75 5
76 0
77 9
78 4
79 2
80 7
81 0
82 7
83 9
84 5
85 0
86 8
87 0
88 9
89 4
90 8
91 1
92 2
93 1
94 6
95 3
96 5
97 5
98 4
99 7
100 4
101 7
102 0
103 0
104 0
105 0
106 9
107 7
108 0
109 0
110 5
111 0
112 1
113 8
114 7
115 0
116 5
117 3
118 1
119 9
120 9
121 1
122 3
123 7
124 5
125 0
126 0
127 5
128 9
129 5
130 7
131 7
132 8
133 0
134 9
135 4
136 9
137 5
138 5
139 7
140 8
141 5
142 3
143 7
144 9
145 9
146 1
147 3
148 3
149 0
150 0
151 5
152 6
153 0
154 9
155 0
156 0
157 8
158 1
159 0
160 7
161 7
162 2
163 7
164 9
165 8
166 0
167 3
168 3
169 9
170 3
171 9
172 5
173 7
174 0
175 3
176 9
177 8
178 7
179 0
180 4
181 7
182 7
183 0
184 9
